10
5
0
569
54
79
16
66
58
0
992
83
3
89
58
56
0
722
15
11
49
31
20
0
825
71
99
15
68
85
0
910
77
56
89
78
53
0
1035
36
70
45
91
35
0
556
53
99
60
13
53
0
1061
38
60
23
59
41
0
901
27
5
57
49
69
0
1057
87
56
64
85
13
o
2000
0.5
0.5
